Route #1: 68 90 84 66
Route #2: 1 70 54
Route #3: 100 61 23
Route #4: 14 49 6 37 87
Route #5: 39 10 18
Route #6: 89 98 99 62 71
Route #7: 24 95 73 53 33 32
Route #8: 17 8
Route #9: 80 94 56 21
Route #10: 25 65 78 42 28
Route #11: 63 77 3
Route #12: 31 46 35
Route #13: 83 51 81
Route #14: 30 85 11 79
Route #15: 93 75
Route #16: 34 64 96 48 26 47 38
Route #17: 50 91 52
Route #18: 27 97 19
Route #19: 7 2 45 43 29 36 72 57
Route #20: 59 60 82
Route #21: 69 16 55 76
Route #22: 44 67 88 40
Route #23: 92 9 86
Route #24: 58 12 5
Route #25: 20 41 22 15
Route #26: 4 13 74
Cost 27591.0000
Time 16.0016